%mem=3GB
%NProcShared=4
chk=bithi_scan.chk
# HF/6-31G Opt=ModRedundant

bithiophene_test1

0 1
C  -0.121109    0.000000    0.122372
C   0.011922    0.000000    1.554172
C   1.285436    0.000000    1.978357
S   2.435418    0.000000    0.613675
C   1.051929    0.000000   -0.548741
C   1.259198    0.000000   -1.985162
S   2.914866    0.000000   -2.709043
C   2.197598    0.000000   -4.343157
C   0.856115    0.000000   -4.296305
C   0.323733    0.000000   -2.960519
H  -1.072727    0.000000   -0.367828
H  -0.828542    0.000000    2.217388
H   1.654166    0.000000    2.978901
H   2.834147    0.000000   -5.198642
H   0.237439    0.000000   -5.170074
H  -0.727648    0.000000   -2.759343

D 4 5 6 7 S 36 10.0

