%mem=3GB
%NProcShared=4
%chk=bithi.chk
#P B3LYP/6-31+G* opt freq

bithiophene

0 1
C 
C  1 R1
C  2 R2  1 A1
S  3 R3  2 A2 1 D1
C  4 R3  3 A3 2 D1
C  5 R4  4 A4 3 D2
S  6 R3  5 A4 4 D3
C  7 R3  6 A3 5 D2
C  8 R2  7 A2 6 D1
C  9 R1  8 A1 7 D1
H  1 R5  2 A5 4 D1
H  2 R5  1 A5 3 D1
H  3 R5  4 A6 5 D1
H  8 R5  7 A6 6 D1
H  9 R5  8 A5 7 D1
H 10 R5  9 A5 8 D1
Variables:
	R1=1.43
	R2=1.34
	R3=1.72
	R4=1.46
	R5=1.07
	A1=112.6
	A2=111.0
	A3=91.6
	A4=127.0
	A5=236.5
	A6=233.0
	D1=0.0
	D2=180.0
	D3=180.0
